54837
49, 23, 21, 29, 22, 10, 39, 46, 36, 15, 16, 9, 14, 2, 52, 45, 11, 25, 31, 27, 1, 33, 42, 12, 18, 4, 30, 47, 54, 34, 53, 17, 48, 19, 44, 8, 38, 35, 5, 37, 51, 40, 7, 20, 50, 24, 32, 41, 13, 43, 3, 6, 28, 55, 26
